benchmark/results/graph__10-1000-0.10-03_17/graph__10-1000-0.10-03_17_QuintonOs_Benders_aux.lp
\ This file has been generated by DOcplex
\ ENCODING=ISO-8859-1
\Problem name: Quinton Bounded Benders_auxiliary_sub

Minimize
 obj: 0.001402524544 pi_nr_a0 + 0.000917431193 pi_nr_a1
      + 0.004342510766 pi_nr_a2 + 0.001574803128 pi_nr_a3
      + 0.001303780965 pi_nr_a4 + 0.001221001221 pi_nr_a5
      + 0.001102143925 pi_nr_a6 + 0.001000439521 pi_nr_a7
      + 0.001190476190 pi_nr_a8 + 0.000818871195 pi_nr_a9 + pi_p_a2_a1
      + pi_p_a4_a0 + pi_p_a1_a5 + pi_p_a6_a9 + pi_p_a7_a5 + pi_p_a9_a3
      + 2 pi_p_a2_a9 + pi_p_a4_a3 + 1300.999986901495 pi_d_a0_a1_proc_2
      + 1300.999989277173 pi_d_a0_a1_proc_0
      + 1276.000010722827 pi_d_a1_a0_proc_2
      + 1276.000013098505 pi_d_a1_a0_proc_0
      + 1276.000011920929 pi_d_a0_a2_proc_2
      + 2318.225278005004 pi_d_a0_a2_proc_0
      + 1300.999988079071 pi_d_a2_a0_proc_2
      + 2343.225254163146 pi_d_a2_a0_proc_0 + 1.000053264553 pi_d_a0_a3_proc_2
      + 0.000052281207 pi_d_a3_a0_proc_2 + 0.000000000000 pi_d_a0_a4_proc_2
      + 2576 pi_d_a0_a4_proc_0 + pi_d_a4_a0_proc_2 + 2577 pi_d_a4_a0_proc_0
      - 0.818088201688 pi_d_a0_a5_proc_2 + 2575.181911798312 pi_d_a0_a5_proc_0
      + 1.818088201688 pi_d_a5_a0_proc_2 + 2577.818088201688 pi_d_a5_a0_proc_0
      + 1160.974846856435 pi_d_a0_a6_proc_2
      + 2037.980828984992 pi_d_a0_a6_proc_0
      + 1183.945426113204 pi_d_a6_a0_proc_2
      + 2060.951408241761 pi_d_a6_a0_proc_0
      + 1282.250198864526 pi_d_a0_a7_proc_2
      + 1926.247648644470 pi_d_a0_a7_proc_0
      + 1294.749801135474 pi_d_a7_a0_proc_2
      + 1938.747250915419 pi_d_a7_a0_proc_0 + 1301 pi_d_a0_a8_proc_0
      + 1276 pi_d_a8_a0_proc_0 + 1300.939824581144 pi_d_a0_a9_proc_2
      + 2545.210046055810 pi_d_a0_a9_proc_0
      + 1275.941027164457 pi_d_a9_a0_proc_2
      + 2520.211248639123 pi_d_a9_a0_proc_0
      + 2586.519353205867 pi_d_a1_a2_proc_2
      + 1052.744621665620 pi_d_a1_a2_proc_0
      + 2566.480644418456 pi_d_a2_a1_proc_2
      + 1032.705912878208 pi_d_a2_a1_proc_0
      + 1301.000051584979 pi_d_a1_a3_proc_2
      + 1276.000051585103 pi_d_a3_a1_proc_2
      + 1290.062489790248 pi_d_a1_a4_proc_2
      + 1290.062492165926 pi_d_a1_a4_proc_0
      + 1286.937507834074 pi_d_a4_a1_proc_2
      + 1286.937510209752 pi_d_a4_a1_proc_0
      + 1300.999998801094 pi_d_a1_a5_proc_2
      + 1301.000001176772 pi_d_a1_a5_proc_0
      + 1275.999998823228 pi_d_a5_a1_proc_2
      + 1276.000001198906 pi_d_a5_a1_proc_0
      + 2453.121374850797 pi_d_a1_a6_proc_2 + 754.127359355032 pi_d_a1_a6_proc_0
      + 2467.798895743164 pi_d_a6_a1_proc_2 + 768.804880247399 pi_d_a6_a1_proc_0
      + 2582.499964143655 pi_d_a1_a7_proc_2 + 650.497416299276 pi_d_a1_a7_proc_0
      + 2570.500033480668 pi_d_a7_a1_proc_2 + 638.497485636290 pi_d_a7_a1_proc_0
      + 1.818093434497 pi_d_a1_a8_proc_0 - 0.818091058819 pi_d_a8_a1_proc_0
      + 2576.003309613486 pi_d_a1_a9_proc_2
      + 1244.273533463830 pi_d_a1_a9_proc_0
      + 2576.877539756438 pi_d_a9_a1_proc_2
      + 1245.147763606782 pi_d_a9_a1_proc_0
      + 1282.933648189891 pi_d_a2_a3_proc_2
      + 1528.708276560056 pi_d_a2_a3_proc_1
      + 1294.066457355869 pi_d_a3_a2_proc_2
      + 1539.841085726034 pi_d_a3_a2_proc_1 + 1276 pi_d_a2_a4_proc_2
      + 1521.774733915925 pi_d_a2_a4_proc_1
      + 2318.225266084075 pi_d_a2_a4_proc_0 + 1301 pi_d_a4_a2_proc_2
      + 1546.774733915925 pi_d_a4_a2_proc_1
      + 2343.225266084075 pi_d_a4_a2_proc_0 + 1301 pi_d_a2_a5_proc_2
      + 2343.225266084075 pi_d_a2_a5_proc_0 + 1276 pi_d_a5_a2_proc_2
      + 2318.225266084075 pi_d_a5_a2_proc_0
      + 2456.005876782747 pi_d_a2_a6_proc_2 + 884.894219115656 pi_d_a2_a6_proc_1
      + 1799.237124995379 pi_d_a2_a6_proc_0
      + 2464.914396186893 pi_d_a6_a2_proc_2 + 893.802738519801 pi_d_a6_a2_proc_1
      + 1808.145644399524 pi_d_a6_a2_proc_0
      + 2584.980669796372 pi_d_a2_a7_proc_2 + 898.757953932353 pi_d_a2_a7_proc_1
      + 1695.203385660391 pi_d_a2_a7_proc_0
      + 2568.019330203628 pi_d_a7_a2_proc_2 + 881.796614339609 pi_d_a7_a2_proc_1
      + 1678.242046067647 pi_d_a7_a2_proc_0
      + 1544.548496643036 pi_d_a2_a8_proc_1
      + 1052.999028811186 pi_d_a2_a8_proc_0
      + 1524.000971188814 pi_d_a8_a2_proc_1
      + 1032.451503356964 pi_d_a8_a2_proc_0
      + 2579.512050475370 pi_d_a2_a9_proc_2 + 293.195285298227 pi_d_a2_a9_proc_1
      + 2290.007538034111 pi_d_a2_a9_proc_0
      + 2573.368801270231 pi_d_a9_a2_proc_2 + 287.052036093089 pi_d_a9_a2_proc_1
      + 2283.864288828973 pi_d_a9_a2_proc_0 + 0.000053305525 pi_d_a3_a4_proc_2
      + 2575.999947759766 pi_d_a3_a4_proc_1 + 1.000052240234 pi_d_a4_a3_proc_2
      + 2576.999946694475 pi_d_a4_a3_proc_1 - 0.818039949113 pi_d_a3_a5_proc_2
      + 1.818145494872 pi_d_a5_a3_proc_2 + 1160.951212696779 pi_d_a3_a6_proc_2
      + 1920.064715568003 pi_d_a3_a6_proc_1
      + 1183.969165818620 pi_d_a6_a3_proc_2
      + 1943.082668689844 pi_d_a6_a3_proc_1
      + 1276.036864921986 pi_d_a3_a7_proc_2
      + 1920.039309596283 pi_d_a3_a7_proc_1
      + 1300.963240623773 pi_d_a7_a3_proc_2
      + 1944.965685298070 pi_d_a7_a3_proc_1
      + 2588.999947227120 pi_d_a3_a8_proc_1
      + 2563.999947227120 pi_d_a8_a3_proc_1
      + 1294.689877244506 pi_d_a3_a9_proc_2
      + 1338.598272605679 pi_d_a3_a9_proc_1
      + 1282.191080046854 pi_d_a9_a3_proc_2
      + 1326.099475408027 pi_d_a9_a3_proc_1 + 0.181907740540 pi_d_a4_a5_proc_2
      + 2576.181907740540 pi_d_a4_a5_proc_0 + 0.818092259460 pi_d_a5_a4_proc_2
      + 2576.818092259460 pi_d_a5_a4_proc_0
      + 1161.041253225644 pi_d_a4_a6_proc_2
      + 1920.154861642628 pi_d_a4_a6_proc_1
      + 2038.047235354201 pi_d_a4_a6_proc_0
      + 1183.879019743995 pi_d_a6_a4_proc_2
      + 1942.992628160979 pi_d_a6_a4_proc_1
      + 2060.885001872552 pi_d_a6_a4_proc_0
      + 1288.597452668599 pi_d_a4_a7_proc_2
      + 1932.600002888655 pi_d_a4_a7_proc_1
      + 1932.594902448543 pi_d_a4_a7_proc_0
      + 1288.402547331401 pi_d_a7_a4_proc_2
      + 1932.405097551457 pi_d_a7_a4_proc_1
      + 1932.399997111345 pi_d_a7_a4_proc_0 + 2589 pi_d_a4_a8_proc_1
      + 1301 pi_d_a4_a8_proc_0 + 2564 pi_d_a8_a4_proc_1 + 1276 pi_d_a8_a4_proc_0
      + 1300.939858913419 pi_d_a4_a9_proc_2
      + 1344.848359820352 pi_d_a4_a9_proc_1
      + 2545.210080388086 pi_d_a4_a9_proc_0
      + 1275.940992832182 pi_d_a9_a4_proc_2
      + 1319.849493739114 pi_d_a9_a4_proc_1
      + 2520.211214306848 pi_d_a9_a4_proc_0
      + 1180.730336235835 pi_d_a5_a6_proc_2
      + 2057.736318364392 pi_d_a5_a6_proc_0
      + 1164.189936733804 pi_d_a6_a5_proc_2
      + 2041.195918862361 pi_d_a6_a5_proc_0 + 1301 pi_d_a5_a7_proc_2
      + 1944.997449779944 pi_d_a5_a7_proc_0 + 1276 pi_d_a7_a5_proc_2
      + 1919.997449779944 pi_d_a7_a5_proc_0
      + 1286.937500023101 pi_d_a5_a8_proc_0
      + 1290.062499976899 pi_d_a8_a5_proc_0
      + 1300.939856052351 pi_d_a5_a9_proc_2
      + 2545.210077527017 pi_d_a5_a9_proc_0
      + 1275.940995693250 pi_d_a9_a5_proc_2
      + 2520.211217167916 pi_d_a9_a5_proc_0
      + 2448.031123344958 pi_d_a6_a7_proc_2
      + 1275.147281981998 pi_d_a6_a7_proc_1
      + 1393.034555253459 pi_d_a6_a7_proc_0
      + 2472.889149624682 pi_d_a7_a6_proc_2
      + 1300.005308261721 pi_d_a7_a6_proc_1
      + 1417.892581533183 pi_d_a7_a6_proc_0
      + 1937.600990035769 pi_d_a6_a8_proc_1 + 767.493363747343 pi_d_a6_a8_proc_0
      + 1925.546499767838 pi_d_a8_a6_proc_1 + 755.438873479411 pi_d_a8_a6_proc_0
      + 2454.833886399192 pi_d_a6_a9_proc_2 + 681.855995723108 pi_d_a6_a9_proc_1
      + 2000.110090002415 pi_d_a6_a9_proc_0
      + 2465.967238316049 pi_d_a9_a6_proc_2 + 692.989347639965 pi_d_a9_a6_proc_1
      + 2011.243441919273 pi_d_a9_a6_proc_0
      + 1927.002578244445 pi_d_a7_a8_proc_1 + 638.997477804333 pi_d_a7_a8_proc_0
      + 1938.002522195666 pi_d_a8_a7_proc_1 + 649.997421755555 pi_d_a8_a7_proc_0
      + 2583.675265851818 pi_d_a7_a9_proc_2 + 695.586316978807 pi_d_a7_a9_proc_1
      + 1895.942937106429 pi_d_a7_a9_proc_0
      + 2569.205585893782 pi_d_a9_a7_proc_2 + 681.116637020771 pi_d_a9_a7_proc_1
      + 1881.473257148393 pi_d_a9_a7_proc_0
      + 1325.036391450812 pi_d_a8_a9_proc_1
      + 1237.398112018546 pi_d_a8_a9_proc_0
      + 1339.661462108654 pi_d_a9_a8_proc_1
      + 1252.023182676388 pi_d_a9_a8_proc_0 + 0.000000000000 pi_y2_a0_proc_0
      + pi_y2_a0_proc_2 + 0.999999999078 pi_y2_a1_proc_0
      + 0.000000000922 pi_y2_a1_proc_2 + 0.190818892792 pi_y2_a2_proc_0
      + 0.809181107208 pi_y2_a2_proc_1 + 0.000000000000 pi_y2_a2_proc_2
      + 0.000000040973 pi_y2_a3_proc_1 + 0.999999959027 pi_y2_a3_proc_2
      + 0.000000000000 pi_y2_a4_proc_0 + 0.000000000000 pi_y2_a4_proc_1
      + pi_y2_a4_proc_2 + 0.000000000000 pi_y2_a5_proc_0 + pi_y2_a5_proc_2
      + 0.409187796108 pi_y2_a6_proc_0 + 0.500719142157 pi_y2_a6_proc_1
      + 0.090093061735 pi_y2_a6_proc_2 + 0.500001979985 pi_y2_a7_proc_0
      + 0.499998020015 pi_y2_a7_proc_1 + 0.000000000000 pi_y2_a7_proc_2
      + pi_y2_a8_proc_0 + 0.000000000000 pi_y2_a8_proc_1
      + 0.033997944606 pi_y2_a9_proc_0 + 0.965955802190 pi_y2_a9_proc_1
      + 0.000046253204 pi_y2_a9_proc_2
Subject To
 c1: 0.001402524544 pi_nr_a0 + 0.000917431193 pi_nr_a1 + 0.004608294931 pi_nr_a2
     + 0.001574803150 pi_nr_a3 + 0.001303780965 pi_nr_a4
     + 0.001221001221 pi_nr_a5 + 0.001009081736 pi_nr_a6
     + 0.001119820829 pi_nr_a7 + 0.001190476190 pi_nr_a8
     + 0.000804505229 pi_nr_a9 + pi_p_a2_a1 + pi_p_a4_a0 + pi_p_a1_a5
     + pi_p_a6_a9 + pi_p_a7_a5 + pi_p_a9_a3 + 2 pi_p_a2_a9 + pi_p_a4_a3
     + 1301 pi_d_a0_a1_proc_2 + 1301 pi_d_a0_a1_proc_0 + 1276 pi_d_a1_a0_proc_2
     + 1276 pi_d_a1_a0_proc_0 + 1276 pi_d_a0_a2_proc_2 + 2564 pi_d_a0_a2_proc_0
     + 1301 pi_d_a2_a0_proc_2 + 2589 pi_d_a2_a0_proc_0 + pi_d_a0_a3_proc_2
     + 2576 pi_d_a0_a4_proc_0 + pi_d_a4_a0_proc_2 + 2577 pi_d_a4_a0_proc_0
     - pi_d_a0_a5_proc_2 + 2575 pi_d_a0_a5_proc_0 + 2 pi_d_a5_a0_proc_2
     + 2578 pi_d_a5_a0_proc_0 + 1276 pi_d_a0_a6_proc_2 + 2564 pi_d_a0_a6_proc_0
     + 1301 pi_d_a6_a0_proc_2 + 2589 pi_d_a6_a0_proc_0 + 1276 pi_d_a0_a7_proc_2
     + 1276 pi_d_a0_a7_proc_0 + 1301 pi_d_a7_a0_proc_2 + 1301 pi_d_a7_a0_proc_0
     + 1301 pi_d_a0_a8_proc_0 + 1276 pi_d_a8_a0_proc_0 + 1301 pi_d_a0_a9_proc_2
     + 2589 pi_d_a0_a9_proc_0 + 1276 pi_d_a9_a0_proc_2 + 2564 pi_d_a9_a0_proc_0
     + 2589 pi_d_a1_a2_proc_2 + 1301 pi_d_a1_a2_proc_0 + 2564 pi_d_a2_a1_proc_2
     + 1276 pi_d_a2_a1_proc_0 + 1301 pi_d_a1_a3_proc_2 + 1276 pi_d_a3_a1_proc_2
     + 1301 pi_d_a1_a4_proc_2 + 1301 pi_d_a1_a4_proc_0 + 1276 pi_d_a4_a1_proc_2
     + 1276 pi_d_a4_a1_proc_0 + 1301 pi_d_a1_a5_proc_2 + 1301 pi_d_a1_a5_proc_0
     + 1276 pi_d_a5_a1_proc_2 + 1276 pi_d_a5_a1_proc_0 + 2564 pi_d_a1_a6_proc_2
     + 1276 pi_d_a1_a6_proc_0 + 2589 pi_d_a6_a1_proc_2 + 1301 pi_d_a6_a1_proc_0
     + 2576 pi_d_a1_a7_proc_2 + 2577 pi_d_a7_a1_proc_2 + pi_d_a7_a1_proc_0
     + 2 pi_d_a1_a8_proc_0 - pi_d_a8_a1_proc_0 + 2564 pi_d_a1_a9_proc_2
     + 1276 pi_d_a1_a9_proc_0 + 2589 pi_d_a9_a1_proc_2 + 1301 pi_d_a9_a1_proc_0
     + 1276 pi_d_a2_a3_proc_2 + 1276 pi_d_a2_a3_proc_1 + 1301 pi_d_a3_a2_proc_2
     + 1301 pi_d_a3_a2_proc_1 + 1276 pi_d_a2_a4_proc_2 + 1276 pi_d_a2_a4_proc_1
     + 2564 pi_d_a2_a4_proc_0 + 1301 pi_d_a4_a2_proc_2 + 1301 pi_d_a4_a2_proc_1
     + 2589 pi_d_a4_a2_proc_0 + 1301 pi_d_a2_a5_proc_2 + 2589 pi_d_a2_a5_proc_0
     + 1276 pi_d_a5_a2_proc_2 + 2564 pi_d_a5_a2_proc_0 + 2577 pi_d_a2_a6_proc_2
     + pi_d_a2_a6_proc_1 + 2577 pi_d_a2_a6_proc_0 + 2576 pi_d_a6_a2_proc_2
     + 2576 pi_d_a6_a2_proc_0 + 2589 pi_d_a2_a7_proc_2 + 1301 pi_d_a2_a7_proc_1
     + 1301 pi_d_a2_a7_proc_0 + 2564 pi_d_a7_a2_proc_2 + 1276 pi_d_a7_a2_proc_1
     + 1276 pi_d_a7_a2_proc_0 + 1301 pi_d_a2_a8_proc_1 + 1301 pi_d_a2_a8_proc_0
     + 1276 pi_d_a8_a2_proc_1 + 1276 pi_d_a8_a2_proc_0 + 2578 pi_d_a2_a9_proc_2
     + 2 pi_d_a2_a9_proc_1 + 2578 pi_d_a2_a9_proc_0 + 2575 pi_d_a9_a2_proc_2
     - pi_d_a9_a2_proc_1 + 2575 pi_d_a9_a2_proc_0 + 2576 pi_d_a3_a4_proc_1
     + pi_d_a4_a3_proc_2 + 2577 pi_d_a4_a3_proc_1 - pi_d_a3_a5_proc_2
     + 2 pi_d_a5_a3_proc_2 + 1276 pi_d_a3_a6_proc_2 + 1276 pi_d_a3_a6_proc_1
     + 1301 pi_d_a6_a3_proc_2 + 1301 pi_d_a6_a3_proc_1 + 1276 pi_d_a3_a7_proc_2
     + 2564 pi_d_a3_a7_proc_1 + 1301 pi_d_a7_a3_proc_2 + 2589 pi_d_a7_a3_proc_1
     + 2589 pi_d_a3_a8_proc_1 + 2564 pi_d_a8_a3_proc_1 + 1301 pi_d_a3_a9_proc_2
     + 1301 pi_d_a3_a9_proc_1 + 1276 pi_d_a9_a3_proc_2 + 1276 pi_d_a9_a3_proc_1
     + 2576 pi_d_a4_a5_proc_0 + pi_d_a5_a4_proc_2 + 2577 pi_d_a5_a4_proc_0
     + 1276 pi_d_a4_a6_proc_2 + 1276 pi_d_a4_a6_proc_1 + 2564 pi_d_a4_a6_proc_0
     + 1301 pi_d_a6_a4_proc_2 + 1301 pi_d_a6_a4_proc_1 + 2589 pi_d_a6_a4_proc_0
     + 1301 pi_d_a4_a7_proc_2 + 2589 pi_d_a4_a7_proc_1 + 1301 pi_d_a4_a7_proc_0
     + 1276 pi_d_a7_a4_proc_2 + 2564 pi_d_a7_a4_proc_1 + 1276 pi_d_a7_a4_proc_0
     + 2589 pi_d_a4_a8_proc_1 + 1301 pi_d_a4_a8_proc_0 + 2564 pi_d_a8_a4_proc_1
     + 1276 pi_d_a8_a4_proc_0 + 1301 pi_d_a4_a9_proc_2 + 1301 pi_d_a4_a9_proc_1
     + 2589 pi_d_a4_a9_proc_0 + 1276 pi_d_a9_a4_proc_2 + 1276 pi_d_a9_a4_proc_1
     + 2564 pi_d_a9_a4_proc_0 + 1301 pi_d_a5_a6_proc_2 + 2589 pi_d_a5_a6_proc_0
     + 1276 pi_d_a6_a5_proc_2 + 2564 pi_d_a6_a5_proc_0 + 1301 pi_d_a5_a7_proc_2
     + 1301 pi_d_a5_a7_proc_0 + 1276 pi_d_a7_a5_proc_2 + 1276 pi_d_a7_a5_proc_0
     + 1276 pi_d_a5_a8_proc_0 + 1301 pi_d_a8_a5_proc_0 + 1301 pi_d_a5_a9_proc_2
     + 2589 pi_d_a5_a9_proc_0 + 1276 pi_d_a9_a5_proc_2 + 2564 pi_d_a9_a5_proc_0
     + 2564 pi_d_a6_a7_proc_2 + 1276 pi_d_a6_a7_proc_1 + 1276 pi_d_a6_a7_proc_0
     + 2589 pi_d_a7_a6_proc_2 + 1301 pi_d_a7_a6_proc_1 + 1301 pi_d_a7_a6_proc_0
     + 1301 pi_d_a6_a8_proc_1 + 1301 pi_d_a6_a8_proc_0 + 1276 pi_d_a8_a6_proc_1
     + 1276 pi_d_a8_a6_proc_0 + 2577 pi_d_a6_a9_proc_2 + pi_d_a6_a9_proc_1
     + 2577 pi_d_a6_a9_proc_0 + 2576 pi_d_a9_a6_proc_2 + 2576 pi_d_a9_a6_proc_0
     + 2578 pi_d_a7_a8_proc_1 + 2 pi_d_a7_a8_proc_0 + 2575 pi_d_a8_a7_proc_1
     - pi_d_a8_a7_proc_0 + 2589 pi_d_a7_a9_proc_2 + 1301 pi_d_a7_a9_proc_1
     + 1301 pi_d_a7_a9_proc_0 + 2564 pi_d_a9_a7_proc_2 + 1276 pi_d_a9_a7_proc_1
     + 1276 pi_d_a9_a7_proc_0 + 1276 pi_d_a8_a9_proc_1 + 1276 pi_d_a8_a9_proc_0
     + 1301 pi_d_a9_a8_proc_1 + 1301 pi_d_a9_a8_proc_0 + pi_y2_a0_proc_2
     + pi_y2_a1_proc_0 + pi_y2_a2_proc_1 + pi_y2_a3_proc_2 + pi_y2_a4_proc_2
     + pi_y2_a5_proc_2 + pi_y2_a6_proc_1 + pi_y2_a7_proc_0 + pi_y2_a8_proc_0
     + pi_y2_a9_proc_1 = 0.000328947368
 c2: pi_nr_a0 + pi_nr_a1 + pi_nr_a2 + pi_nr_a3 + pi_nr_a4 + pi_nr_a5 + pi_nr_a6
     + pi_nr_a7 + pi_nr_a8 + pi_nr_a9 - pi_y1_a0 - pi_y1_a1 - pi_y1_a2
     - pi_y1_a3 - pi_y1_a4 - pi_y1_a5 - pi_y1_a6 - pi_y1_a7 - pi_y1_a8
     - pi_y1_a9 >= 1
 c3: pi_p_a0_a1 - pi_p_a3_a0 - pi_p_a4_a0 + pi_p_a0_a8 + pi_d_a0_a1_proc_2
     + pi_d_a0_a1_proc_0 - pi_d_a1_a0_proc_2 - pi_d_a1_a0_proc_0
     + pi_d_a0_a2_proc_2 + pi_d_a0_a2_proc_0 - pi_d_a2_a0_proc_2
     - pi_d_a2_a0_proc_0 + pi_d_a0_a3_proc_2 - pi_d_a3_a0_proc_2
     + pi_d_a0_a4_proc_2 + pi_d_a0_a4_proc_0 - pi_d_a4_a0_proc_2
     - pi_d_a4_a0_proc_0 + pi_d_a0_a5_proc_2 + pi_d_a0_a5_proc_0
     - pi_d_a5_a0_proc_2 - pi_d_a5_a0_proc_0 + pi_d_a0_a6_proc_2
     + pi_d_a0_a6_proc_0 - pi_d_a6_a0_proc_2 - pi_d_a6_a0_proc_0
     + pi_d_a0_a7_proc_2 + pi_d_a0_a7_proc_0 - pi_d_a7_a0_proc_2
     - pi_d_a7_a0_proc_0 + pi_d_a0_a8_proc_0 - pi_d_a8_a0_proc_0
     + pi_d_a0_a9_proc_2 + pi_d_a0_a9_proc_0 - pi_d_a9_a0_proc_2
     - pi_d_a9_a0_proc_0 >= 0
 c4: 1018 pi_p_a0_a1 + 1018 pi_p_a0_a8 + 1018 pi_d_a0_a1_proc_0
     + 1018 pi_d_a0_a2_proc_0 + 1018 pi_d_a0_a4_proc_0 + 1018 pi_d_a0_a5_proc_0
     + 1018 pi_d_a0_a6_proc_0 + 1018 pi_d_a0_a7_proc_0 + 1018 pi_d_a0_a8_proc_0
     + 1018 pi_d_a0_a9_proc_0 + pi_y1_a0 + pi_y2_a0_proc_0 >= 0
 c5: 713 pi_p_a0_a1 + 713 pi_p_a0_a8 + 713 pi_d_a0_a1_proc_2
     + 713 pi_d_a0_a2_proc_2 + 713 pi_d_a0_a3_proc_2 + 713 pi_d_a0_a4_proc_2
     + 713 pi_d_a0_a5_proc_2 + 713 pi_d_a0_a6_proc_2 + 713 pi_d_a0_a7_proc_2
     + 713 pi_d_a0_a9_proc_2 + pi_y1_a0 + pi_y2_a0_proc_2 >= 0
 c6: - pi_p_a0_a1 - pi_p_a2_a1 + pi_p_a1_a5 - pi_p_a5_a1 + pi_p_a1_a2
     - pi_d_a0_a1_proc_2 - pi_d_a0_a1_proc_0 + pi_d_a1_a0_proc_2
     + pi_d_a1_a0_proc_0 + pi_d_a1_a2_proc_2 + pi_d_a1_a2_proc_0
     - pi_d_a2_a1_proc_2 - pi_d_a2_a1_proc_0 + pi_d_a1_a3_proc_2
     - pi_d_a3_a1_proc_2 + pi_d_a1_a4_proc_2 + pi_d_a1_a4_proc_0
     - pi_d_a4_a1_proc_2 - pi_d_a4_a1_proc_0 + pi_d_a1_a5_proc_2
     + pi_d_a1_a5_proc_0 - pi_d_a5_a1_proc_2 - pi_d_a5_a1_proc_0
     + pi_d_a1_a6_proc_2 + pi_d_a1_a6_proc_0 - pi_d_a6_a1_proc_2
     - pi_d_a6_a1_proc_0 + pi_d_a1_a7_proc_2 + pi_d_a1_a7_proc_0
     - pi_d_a7_a1_proc_2 - pi_d_a7_a1_proc_0 + pi_d_a1_a8_proc_0
     - pi_d_a8_a1_proc_0 + pi_d_a1_a9_proc_2 + pi_d_a1_a9_proc_0
     - pi_d_a9_a1_proc_2 - pi_d_a9_a1_proc_0 >= 0
 c7: 1090 pi_p_a1_a5 + 1090 pi_p_a1_a2 + 1090 pi_d_a1_a0_proc_0
     + 1090 pi_d_a1_a2_proc_0 + 1090 pi_d_a1_a4_proc_0 + 1090 pi_d_a1_a5_proc_0
     + 1090 pi_d_a1_a6_proc_0 + 1090 pi_d_a1_a7_proc_0 + 1090 pi_d_a1_a8_proc_0
     + 1090 pi_d_a1_a9_proc_0 + pi_y1_a1 + pi_y2_a1_proc_0 >= 0
 c8: 1288 pi_p_a1_a5 + 1288 pi_p_a1_a2 + 1288 pi_d_a1_a0_proc_2
     + 1288 pi_d_a1_a2_proc_2 + 1288 pi_d_a1_a3_proc_2 + 1288 pi_d_a1_a4_proc_2
     + 1288 pi_d_a1_a5_proc_2 + 1288 pi_d_a1_a6_proc_2 + 1288 pi_d_a1_a7_proc_2
     + 1288 pi_d_a1_a9_proc_2 + pi_y1_a1 + pi_y2_a1_proc_2 >= 0
 c9: pi_p_a2_a1 + pi_p_a2_a7 + pi_p_a2_a9 - pi_p_a1_a2 - pi_d_a0_a2_proc_2
     - pi_d_a0_a2_proc_0 + pi_d_a2_a0_proc_2 + pi_d_a2_a0_proc_0
     - pi_d_a1_a2_proc_2 - pi_d_a1_a2_proc_0 + pi_d_a2_a1_proc_2
     + pi_d_a2_a1_proc_0 + pi_d_a2_a3_proc_2 + pi_d_a2_a3_proc_1
     - pi_d_a3_a2_proc_2 - pi_d_a3_a2_proc_1 + pi_d_a2_a4_proc_2
     + pi_d_a2_a4_proc_1 + pi_d_a2_a4_proc_0 - pi_d_a4_a2_proc_2
     - pi_d_a4_a2_proc_1 - pi_d_a4_a2_proc_0 + pi_d_a2_a5_proc_2
     + pi_d_a2_a5_proc_0 - pi_d_a5_a2_proc_2 - pi_d_a5_a2_proc_0
     + pi_d_a2_a6_proc_2 + pi_d_a2_a6_proc_1 + pi_d_a2_a6_proc_0
     - pi_d_a6_a2_proc_2 - pi_d_a6_a2_proc_1 - pi_d_a6_a2_proc_0
     + pi_d_a2_a7_proc_2 + pi_d_a2_a7_proc_1 + pi_d_a2_a7_proc_0
     - pi_d_a7_a2_proc_2 - pi_d_a7_a2_proc_1 - pi_d_a7_a2_proc_0
     + pi_d_a2_a8_proc_1 + pi_d_a2_a8_proc_0 - pi_d_a8_a2_proc_1
     - pi_d_a8_a2_proc_0 + pi_d_a2_a9_proc_2 + pi_d_a2_a9_proc_1
     + pi_d_a2_a9_proc_0 - pi_d_a9_a2_proc_2 - pi_d_a9_a2_proc_1
     - pi_d_a9_a2_proc_0 >= 0
 c10: 311 pi_p_a2_a1 + 311 pi_p_a2_a7 + 311 pi_p_a2_a9 + 311 pi_d_a2_a0_proc_0
      + 311 pi_d_a2_a1_proc_0 + 311 pi_d_a2_a4_proc_0 + 311 pi_d_a2_a5_proc_0
      + 311 pi_d_a2_a6_proc_0 + 311 pi_d_a2_a7_proc_0 + 311 pi_d_a2_a8_proc_0
      + 311 pi_d_a2_a9_proc_0 + pi_y1_a2 + pi_y2_a2_proc_0 >= 0
 c11: 217 pi_p_a2_a1 + 217 pi_p_a2_a7 + 217 pi_p_a2_a9 + 217 pi_d_a2_a3_proc_1
      + 217 pi_d_a2_a4_proc_1 + 217 pi_d_a2_a6_proc_1 + 217 pi_d_a2_a7_proc_1
      + 217 pi_d_a2_a8_proc_1 + 217 pi_d_a2_a9_proc_1 + pi_y1_a2
      + pi_y2_a2_proc_1 >= 0
 c12: 1061 pi_p_a2_a1 + 1061 pi_p_a2_a7 + 1061 pi_p_a2_a9
      + 1061 pi_d_a2_a0_proc_2 + 1061 pi_d_a2_a1_proc_2 + 1061 pi_d_a2_a3_proc_2
      + 1061 pi_d_a2_a4_proc_2 + 1061 pi_d_a2_a5_proc_2 + 1061 pi_d_a2_a6_proc_2
      + 1061 pi_d_a2_a7_proc_2 + 1061 pi_d_a2_a9_proc_2 + pi_y1_a2
      + pi_y2_a2_proc_2 >= 0
 c13: pi_p_a3_a0 - pi_p_a9_a3 + pi_p_a3_a8 - pi_p_a4_a3 - pi_d_a0_a3_proc_2
      + pi_d_a3_a0_proc_2 - pi_d_a1_a3_proc_2 + pi_d_a3_a1_proc_2
      - pi_d_a2_a3_proc_2 - pi_d_a2_a3_proc_1 + pi_d_a3_a2_proc_2
      + pi_d_a3_a2_proc_1 + pi_d_a3_a4_proc_2 + pi_d_a3_a4_proc_1
      - pi_d_a4_a3_proc_2 - pi_d_a4_a3_proc_1 + pi_d_a3_a5_proc_2
      - pi_d_a5_a3_proc_2 + pi_d_a3_a6_proc_2 + pi_d_a3_a6_proc_1
      - pi_d_a6_a3_proc_2 - pi_d_a6_a3_proc_1 + pi_d_a3_a7_proc_2
      + pi_d_a3_a7_proc_1 - pi_d_a7_a3_proc_2 - pi_d_a7_a3_proc_1
      + pi_d_a3_a8_proc_1 - pi_d_a8_a3_proc_1 + pi_d_a3_a9_proc_2
      + pi_d_a3_a9_proc_1 - pi_d_a9_a3_proc_2 - pi_d_a9_a3_proc_1 >= 0
 c14: 953 pi_p_a3_a0 + 953 pi_p_a3_a8 + 953 pi_d_a3_a2_proc_1
      + 953 pi_d_a3_a4_proc_1 + 953 pi_d_a3_a6_proc_1 + 953 pi_d_a3_a7_proc_1
      + 953 pi_d_a3_a8_proc_1 + 953 pi_d_a3_a9_proc_1 + pi_y1_a3
      + pi_y2_a3_proc_1 >= 0
 c15: 635 pi_p_a3_a0 + 635 pi_p_a3_a8 + 635 pi_d_a3_a0_proc_2
      + 635 pi_d_a3_a1_proc_2 + 635 pi_d_a3_a2_proc_2 + 635 pi_d_a3_a4_proc_2
      + 635 pi_d_a3_a5_proc_2 + 635 pi_d_a3_a6_proc_2 + 635 pi_d_a3_a7_proc_2
      + 635 pi_d_a3_a9_proc_2 + pi_y1_a3 + pi_y2_a3_proc_2 >= 0
 c16: pi_p_a4_a0 + pi_p_a4_a6 - pi_p_a8_a4 + pi_p_a4_a3 - pi_d_a0_a4_proc_2
      - pi_d_a0_a4_proc_0 + pi_d_a4_a0_proc_2 + pi_d_a4_a0_proc_0
      - pi_d_a1_a4_proc_2 - pi_d_a1_a4_proc_0 + pi_d_a4_a1_proc_2
      + pi_d_a4_a1_proc_0 - pi_d_a2_a4_proc_2 - pi_d_a2_a4_proc_1
      - pi_d_a2_a4_proc_0 + pi_d_a4_a2_proc_2 + pi_d_a4_a2_proc_1
      + pi_d_a4_a2_proc_0 - pi_d_a3_a4_proc_2 - pi_d_a3_a4_proc_1
      + pi_d_a4_a3_proc_2 + pi_d_a4_a3_proc_1 + pi_d_a4_a5_proc_2
      + pi_d_a4_a5_proc_0 - pi_d_a5_a4_proc_2 - pi_d_a5_a4_proc_0
      + pi_d_a4_a6_proc_2 + pi_d_a4_a6_proc_1 + pi_d_a4_a6_proc_0
      - pi_d_a6_a4_proc_2 - pi_d_a6_a4_proc_1 - pi_d_a6_a4_proc_0
      + pi_d_a4_a7_proc_2 + pi_d_a4_a7_proc_1 + pi_d_a4_a7_proc_0
      - pi_d_a7_a4_proc_2 - pi_d_a7_a4_proc_1 - pi_d_a7_a4_proc_0
      + pi_d_a4_a8_proc_1 + pi_d_a4_a8_proc_0 - pi_d_a8_a4_proc_1
      - pi_d_a8_a4_proc_0 + pi_d_a4_a9_proc_2 + pi_d_a4_a9_proc_1
      + pi_d_a4_a9_proc_0 - pi_d_a9_a4_proc_2 - pi_d_a9_a4_proc_1
      - pi_d_a9_a4_proc_0 >= 0
 c17: 1074 pi_p_a4_a0 + 1074 pi_p_a4_a6 + 1074 pi_p_a4_a3
      + 1074 pi_d_a4_a0_proc_0 + 1074 pi_d_a4_a1_proc_0 + 1074 pi_d_a4_a2_proc_0
      + 1074 pi_d_a4_a5_proc_0 + 1074 pi_d_a4_a6_proc_0 + 1074 pi_d_a4_a7_proc_0
      + 1074 pi_d_a4_a8_proc_0 + 1074 pi_d_a4_a9_proc_0 + pi_y1_a4
      + pi_y2_a4_proc_0 >= 0
 c18: 932 pi_p_a4_a0 + 932 pi_p_a4_a6 + 932 pi_p_a4_a3 + 932 pi_d_a4_a2_proc_1
      + 932 pi_d_a4_a3_proc_1 + 932 pi_d_a4_a6_proc_1 + 932 pi_d_a4_a7_proc_1
      + 932 pi_d_a4_a8_proc_1 + 932 pi_d_a4_a9_proc_1 + pi_y1_a4
      + pi_y2_a4_proc_1 >= 0
 c19: 767 pi_p_a4_a0 + 767 pi_p_a4_a6 + 767 pi_p_a4_a3 + 767 pi_d_a4_a0_proc_2
      + 767 pi_d_a4_a1_proc_2 + 767 pi_d_a4_a2_proc_2 + 767 pi_d_a4_a3_proc_2
      + 767 pi_d_a4_a5_proc_2 + 767 pi_d_a4_a6_proc_2 + 767 pi_d_a4_a7_proc_2
      + 767 pi_d_a4_a9_proc_2 + pi_y1_a4 + pi_y2_a4_proc_2 >= 0
 c20: - pi_p_a1_a5 - pi_p_a7_a5 + pi_p_a5_a1 - pi_d_a0_a5_proc_2
      - pi_d_a0_a5_proc_0 + pi_d_a5_a0_proc_2 + pi_d_a5_a0_proc_0
      - pi_d_a1_a5_proc_2 - pi_d_a1_a5_proc_0 + pi_d_a5_a1_proc_2
      + pi_d_a5_a1_proc_0 - pi_d_a2_a5_proc_2 - pi_d_a2_a5_proc_0
      + pi_d_a5_a2_proc_2 + pi_d_a5_a2_proc_0 - pi_d_a3_a5_proc_2
      + pi_d_a5_a3_proc_2 - pi_d_a4_a5_proc_2 - pi_d_a4_a5_proc_0
      + pi_d_a5_a4_proc_2 + pi_d_a5_a4_proc_0 + pi_d_a5_a6_proc_2
      + pi_d_a5_a6_proc_0 - pi_d_a6_a5_proc_2 - pi_d_a6_a5_proc_0
      + pi_d_a5_a7_proc_2 + pi_d_a5_a7_proc_0 - pi_d_a7_a5_proc_2
      - pi_d_a7_a5_proc_0 + pi_d_a5_a8_proc_0 - pi_d_a8_a5_proc_0
      + pi_d_a5_a9_proc_2 + pi_d_a5_a9_proc_0 - pi_d_a9_a5_proc_2
      - pi_d_a9_a5_proc_0 >= 0
 c21: 994 pi_p_a5_a1 + 994 pi_d_a5_a0_proc_0 + 994 pi_d_a5_a1_proc_0
      + 994 pi_d_a5_a2_proc_0 + 994 pi_d_a5_a4_proc_0 + 994 pi_d_a5_a6_proc_0
      + 994 pi_d_a5_a7_proc_0 + 994 pi_d_a5_a8_proc_0 + 994 pi_d_a5_a9_proc_0
      + pi_y1_a5 + pi_y2_a5_proc_0 >= 0
 c22: 819 pi_p_a5_a1 + 819 pi_d_a5_a0_proc_2 + 819 pi_d_a5_a1_proc_2
      + 819 pi_d_a5_a2_proc_2 + 819 pi_d_a5_a3_proc_2 + 819 pi_d_a5_a4_proc_2
      + 819 pi_d_a5_a6_proc_2 + 819 pi_d_a5_a7_proc_2 + 819 pi_d_a5_a9_proc_2
      + pi_y1_a5 + pi_y2_a5_proc_2 >= 0
 c23: - pi_p_a4_a6 + pi_p_a6_a9 - pi_d_a0_a6_proc_2 - pi_d_a0_a6_proc_0
      + pi_d_a6_a0_proc_2 + pi_d_a6_a0_proc_0 - pi_d_a1_a6_proc_2
      - pi_d_a1_a6_proc_0 + pi_d_a6_a1_proc_2 + pi_d_a6_a1_proc_0
      - pi_d_a2_a6_proc_2 - pi_d_a2_a6_proc_1 - pi_d_a2_a6_proc_0
      + pi_d_a6_a2_proc_2 + pi_d_a6_a2_proc_1 + pi_d_a6_a2_proc_0
      - pi_d_a3_a6_proc_2 - pi_d_a3_a6_proc_1 + pi_d_a6_a3_proc_2
      + pi_d_a6_a3_proc_1 - pi_d_a4_a6_proc_2 - pi_d_a4_a6_proc_1
      - pi_d_a4_a6_proc_0 + pi_d_a6_a4_proc_2 + pi_d_a6_a4_proc_1
      + pi_d_a6_a4_proc_0 - pi_d_a5_a6_proc_2 - pi_d_a5_a6_proc_0
      + pi_d_a6_a5_proc_2 + pi_d_a6_a5_proc_0 + pi_d_a6_a7_proc_2
      + pi_d_a6_a7_proc_1 + pi_d_a6_a7_proc_0 - pi_d_a7_a6_proc_2
      - pi_d_a7_a6_proc_1 - pi_d_a7_a6_proc_0 + pi_d_a6_a8_proc_1
      + pi_d_a6_a8_proc_0 - pi_d_a8_a6_proc_1 - pi_d_a8_a6_proc_0
      + pi_d_a6_a9_proc_2 + pi_d_a6_a9_proc_1 + pi_d_a6_a9_proc_0
      - pi_d_a9_a6_proc_2 - pi_d_a9_a6_proc_1 - pi_d_a9_a6_proc_0 >= 0
 c24: 969 pi_p_a6_a9 + 969 pi_d_a6_a0_proc_0 + 969 pi_d_a6_a1_proc_0
      + 969 pi_d_a6_a2_proc_0 + 969 pi_d_a6_a4_proc_0 + 969 pi_d_a6_a5_proc_0
      + 969 pi_d_a6_a7_proc_0 + 969 pi_d_a6_a8_proc_0 + 969 pi_d_a6_a9_proc_0
      + pi_y1_a6 + pi_y2_a6_proc_0 >= 0
 c25: 991 pi_p_a6_a9 + 991 pi_d_a6_a2_proc_1 + 991 pi_d_a6_a3_proc_1
      + 991 pi_d_a6_a4_proc_1 + 991 pi_d_a6_a7_proc_1 + 991 pi_d_a6_a8_proc_1
      + 991 pi_d_a6_a9_proc_1 + pi_y1_a6 + pi_y2_a6_proc_1 >= 0
 c26: 516 pi_p_a6_a9 + 516 pi_d_a6_a0_proc_2 + 516 pi_d_a6_a1_proc_2
      + 516 pi_d_a6_a2_proc_2 + 516 pi_d_a6_a3_proc_2 + 516 pi_d_a6_a4_proc_2
      + 516 pi_d_a6_a5_proc_2 + 516 pi_d_a6_a7_proc_2 + 516 pi_d_a6_a9_proc_2
      + pi_y1_a6 + pi_y2_a6_proc_2 >= 0
 c27: - pi_p_a2_a7 + pi_p_a7_a5 - pi_d_a0_a7_proc_2 - pi_d_a0_a7_proc_0
      + pi_d_a7_a0_proc_2 + pi_d_a7_a0_proc_0 - pi_d_a1_a7_proc_2
      - pi_d_a1_a7_proc_0 + pi_d_a7_a1_proc_2 + pi_d_a7_a1_proc_0
      - pi_d_a2_a7_proc_2 - pi_d_a2_a7_proc_1 - pi_d_a2_a7_proc_0
      + pi_d_a7_a2_proc_2 + pi_d_a7_a2_proc_1 + pi_d_a7_a2_proc_0
      - pi_d_a3_a7_proc_2 - pi_d_a3_a7_proc_1 + pi_d_a7_a3_proc_2
      + pi_d_a7_a3_proc_1 - pi_d_a4_a7_proc_2 - pi_d_a4_a7_proc_1
      - pi_d_a4_a7_proc_0 + pi_d_a7_a4_proc_2 + pi_d_a7_a4_proc_1
      + pi_d_a7_a4_proc_0 - pi_d_a5_a7_proc_2 - pi_d_a5_a7_proc_0
      + pi_d_a7_a5_proc_2 + pi_d_a7_a5_proc_0 - pi_d_a6_a7_proc_2
      - pi_d_a6_a7_proc_1 - pi_d_a6_a7_proc_0 + pi_d_a7_a6_proc_2
      + pi_d_a7_a6_proc_1 + pi_d_a7_a6_proc_0 + pi_d_a7_a8_proc_1
      + pi_d_a7_a8_proc_0 - pi_d_a8_a7_proc_1 - pi_d_a8_a7_proc_0
      + pi_d_a7_a9_proc_2 + pi_d_a7_a9_proc_1 + pi_d_a7_a9_proc_0
      - pi_d_a9_a7_proc_2 - pi_d_a9_a7_proc_1 - pi_d_a9_a7_proc_0 >= 0
 c28: 893 pi_p_a7_a5 + 893 pi_d_a7_a0_proc_0 + 893 pi_d_a7_a1_proc_0
      + 893 pi_d_a7_a2_proc_0 + 893 pi_d_a7_a4_proc_0 + 893 pi_d_a7_a5_proc_0
      + 893 pi_d_a7_a6_proc_0 + 893 pi_d_a7_a8_proc_0 + 893 pi_d_a7_a9_proc_0
      + pi_y1_a7 + pi_y2_a7_proc_0 >= 0
 c29: 1135 pi_p_a7_a5 + 1135 pi_d_a7_a2_proc_1 + 1135 pi_d_a7_a3_proc_1
      + 1135 pi_d_a7_a4_proc_1 + 1135 pi_d_a7_a6_proc_1 + 1135 pi_d_a7_a8_proc_1
      + 1135 pi_d_a7_a9_proc_1 + pi_y1_a7 + pi_y2_a7_proc_1 >= 0
 c30: 859 pi_p_a7_a5 + 859 pi_d_a7_a0_proc_2 + 859 pi_d_a7_a1_proc_2
      + 859 pi_d_a7_a2_proc_2 + 859 pi_d_a7_a3_proc_2 + 859 pi_d_a7_a4_proc_2
      + 859 pi_d_a7_a5_proc_2 + 859 pi_d_a7_a6_proc_2 + 859 pi_d_a7_a9_proc_2
      + pi_y1_a7 + pi_y2_a7_proc_2 >= 0
 c31: - pi_p_a0_a8 - pi_p_a3_a8 + pi_p_a8_a4 - pi_d_a0_a8_proc_0
      + pi_d_a8_a0_proc_0 - pi_d_a1_a8_proc_0 + pi_d_a8_a1_proc_0
      - pi_d_a2_a8_proc_1 - pi_d_a2_a8_proc_0 + pi_d_a8_a2_proc_1
      + pi_d_a8_a2_proc_0 - pi_d_a3_a8_proc_1 + pi_d_a8_a3_proc_1
      - pi_d_a4_a8_proc_1 - pi_d_a4_a8_proc_0 + pi_d_a8_a4_proc_1
      + pi_d_a8_a4_proc_0 - pi_d_a5_a8_proc_0 + pi_d_a8_a5_proc_0
      - pi_d_a6_a8_proc_1 - pi_d_a6_a8_proc_0 + pi_d_a8_a6_proc_1
      + pi_d_a8_a6_proc_0 - pi_d_a7_a8_proc_1 - pi_d_a7_a8_proc_0
      + pi_d_a8_a7_proc_1 + pi_d_a8_a7_proc_0 + pi_d_a8_a9_proc_1
      + pi_d_a8_a9_proc_0 - pi_d_a9_a8_proc_1 - pi_d_a9_a8_proc_0 >= 0
 c32: 840 pi_p_a8_a4 + 840 pi_d_a8_a0_proc_0 + 840 pi_d_a8_a1_proc_0
      + 840 pi_d_a8_a2_proc_0 + 840 pi_d_a8_a4_proc_0 + 840 pi_d_a8_a5_proc_0
      + 840 pi_d_a8_a6_proc_0 + 840 pi_d_a8_a7_proc_0 + 840 pi_d_a8_a9_proc_0
      + pi_y1_a8 + pi_y2_a8_proc_0 >= 0
 c33: 1243 pi_p_a8_a4 + 1243 pi_d_a8_a2_proc_1 + 1243 pi_d_a8_a3_proc_1
      + 1243 pi_d_a8_a4_proc_1 + 1243 pi_d_a8_a6_proc_1 + 1243 pi_d_a8_a7_proc_1
      + 1243 pi_d_a8_a9_proc_1 + pi_y1_a8 + pi_y2_a8_proc_1 >= 0
 c34: - pi_p_a6_a9 + pi_p_a9_a3 - pi_p_a2_a9 - pi_d_a0_a9_proc_2
      - pi_d_a0_a9_proc_0 + pi_d_a9_a0_proc_2 + pi_d_a9_a0_proc_0
      - pi_d_a1_a9_proc_2 - pi_d_a1_a9_proc_0 + pi_d_a9_a1_proc_2
      + pi_d_a9_a1_proc_0 - pi_d_a2_a9_proc_2 - pi_d_a2_a9_proc_1
      - pi_d_a2_a9_proc_0 + pi_d_a9_a2_proc_2 + pi_d_a9_a2_proc_1
      + pi_d_a9_a2_proc_0 - pi_d_a3_a9_proc_2 - pi_d_a3_a9_proc_1
      + pi_d_a9_a3_proc_2 + pi_d_a9_a3_proc_1 - pi_d_a4_a9_proc_2
      - pi_d_a4_a9_proc_1 - pi_d_a4_a9_proc_0 + pi_d_a9_a4_proc_2
      + pi_d_a9_a4_proc_1 + pi_d_a9_a4_proc_0 - pi_d_a5_a9_proc_2
      - pi_d_a5_a9_proc_0 + pi_d_a9_a5_proc_2 + pi_d_a9_a5_proc_0
      - pi_d_a6_a9_proc_2 - pi_d_a6_a9_proc_1 - pi_d_a6_a9_proc_0
      + pi_d_a9_a6_proc_2 + pi_d_a9_a6_proc_1 + pi_d_a9_a6_proc_0
      - pi_d_a7_a9_proc_2 - pi_d_a7_a9_proc_1 - pi_d_a7_a9_proc_0
      + pi_d_a9_a7_proc_2 + pi_d_a9_a7_proc_1 + pi_d_a9_a7_proc_0
      - pi_d_a8_a9_proc_1 - pi_d_a8_a9_proc_0 + pi_d_a9_a8_proc_1
      + pi_d_a9_a8_proc_0 >= 0
 c35: 815 pi_p_a9_a3 + 815 pi_d_a9_a0_proc_0 + 815 pi_d_a9_a1_proc_0
      + 815 pi_d_a9_a2_proc_0 + 815 pi_d_a9_a4_proc_0 + 815 pi_d_a9_a5_proc_0
      + 815 pi_d_a9_a6_proc_0 + 815 pi_d_a9_a7_proc_0 + 815 pi_d_a9_a8_proc_0
      + pi_y1_a9 + pi_y2_a9_proc_0 >= 0
 c36: 1243 pi_p_a9_a3 + 1243 pi_d_a9_a2_proc_1 + 1243 pi_d_a9_a3_proc_1
      + 1243 pi_d_a9_a4_proc_1 + 1243 pi_d_a9_a6_proc_1 + 1243 pi_d_a9_a7_proc_1
      + 1243 pi_d_a9_a8_proc_1 + pi_y1_a9 + pi_y2_a9_proc_1 >= 0
 c37: 1173 pi_p_a9_a3 + 1173 pi_d_a9_a0_proc_2 + 1173 pi_d_a9_a1_proc_2
      + 1173 pi_d_a9_a2_proc_2 + 1173 pi_d_a9_a3_proc_2 + 1173 pi_d_a9_a4_proc_2
      + 1173 pi_d_a9_a5_proc_2 + 1173 pi_d_a9_a6_proc_2 + 1173 pi_d_a9_a7_proc_2
      + pi_y1_a9 + pi_y2_a9_proc_2 >= 0

Bounds
       pi_y1_a0 Free
       pi_y1_a1 Free
       pi_y1_a2 Free
       pi_y1_a3 Free
       pi_y1_a4 Free
       pi_y1_a5 Free
       pi_y1_a6 Free
       pi_y1_a7 Free
       pi_y1_a8 Free
       pi_y1_a9 Free
End
