benchmark/results/graph__10-1000-0.10-03_17/graph__10-1000-0.10-03_17_QuintonOs_Benders_aux.txt
solution for: Quinton Bounded Benders_auxiliary_sub
objective: 0.356802
status: OPTIMAL_SOLUTION(2)
pi_p_a2_a7=0.000
pi_p_a1_a2=0.000
pi_d_a8_a1_proc_0=0.000
pi_d_a7_a8_proc_0=0.000
pi_y1_a1=-0.359
pi_y1_a2=-0.071
pi_y1_a7=-0.294
pi_y1_a8=-0.276
pi_y2_a7_proc_1=0.294
pi_y2_a7_proc_2=0.294
pi_y2_a8_proc_1=0.276
